InboundTrucks  = 80;
OutboundTrucks = 40;
InboundDoors   = 16;
OutboundDoors  = 8;
ReleaseTime    = [27,8,48,62,48,80,33,55,23,25,53,58,56,8,5,5,16,33,29,58,61,76,65,36,61,38,22,1,61,63,9,66,47,11,17,22,38,71,9,13,15,4,44,33,80,36,1,78,44,4,13,25,15,5,7,6,15,2,47,38,22,8,6,64,75,39,51,76,5,33,13,31,17,10,73,2,43,41,16,42];
UnloadTime     = [3,9,7,11,7,5,4,5,9,3,7,10,6,10,7,10,1,10,7,1,3,8,11,8,8,4,9,11,5,3,3,5,8,12,7,3,12,1,7,11,4,9,7,10,1,5,8,12,4,4,8,8,6,10,5,4,4,9,11,10,3,1,2,4,3,8,3,3,7,10,11,4,10,12,12,11,7,4,7,12];
LoadTime       = [4,3,7,5,6,3,6,10,11,7,5,7,3,5,3,2,12,1,8,1,12,4,1,12,2,3,3,1,6,4,11,5,11,4,10,5,1,3,12,5];
TransferTime   = [| 2,0,0,0,0,2,0,0,1,2,2,0,2,0,2,0,0,1,0,0,0,1,2,2,0,1,0,0,2,0,0,0,2,0,0,1,0,2,2,0 | 2,0,0,1,0,2,0,2,0,0,2,0,0,0,1,0,0,0,2,2,2,0,0,2,0,2,1,0,1,0,0,0,2,0,0,0,0,0,0,0 | 0,0,1,0,0,1,0,0,1,0,0,2,2,2,0,0,0,2,0,2,2,0,0,1,0,0,0,0,0,0,2,0,2,0,0,1,0,1,0,0 | 0,0,0,1,1,1,0,2,2,0,0,2,2,1,0,0,0,1,0,0,0,0,0,2,2,0,2,0,0,0,1,1,0,0,1,1,0,2,0,2 | 2,0,1,1,1,0,2,2,0,0,1,1,0,0,0,1,1,0,2,0,2,0,0,2,2,0,1,0,2,1,0,1,0,2,0,0,2,2,0,2 | 2,1,0,0,2,1,1,2,0,2,0,0,2,0,0,0,0,2,0,1,0,0,0,0,0,0,0,2,0,0,2,1,2,0,1,0,1,1,0,1 | 0,0,0,0,0,0,0,2,0,0,0,0,0,0,0,0,2,0,2,2,2,2,0,0,0,0,1,0,1,0,0,1,0,0,0,0,0,0,0,0 | 1,1,0,0,1,2,0,2,1,0,0,0,0,0,0,1,1,0,1,0,0,1,1,0,2,0,0,0,2,0,0,0,2,2,0,1,1,0,0,1 | 0,0,1,0,0,0,0,0,0,0,0,0,0,1,0,0,2,2,0,0,0,1,0,0,2,0,2,0,1,2,0,0,0,2,0,2,1,0,2,0 | 1,1,1,1,1,0,0,0,0,0,0,0,0,0,1,1,2,2,0,2,0,1,2,0,0,1,0,0,0,0,0,0,0,0,1,0,2,0,0,0 | 0,0,0,0,2,0,0,2,0,2,2,0,0,2,2,1,0,0,1,1,2,0,0,0,0,0,0,1,0,0,0,1,0,1,2,2,1,0,1,0 | 0,1,0,0,0,0,1,1,1,0,2,0,1,0,0,1,0,0,1,2,1,2,1,0,1,0,2,2,0,2,0,0,0,0,1,0,0,0,2,0 | 0,2,0,0,0,1,0,0,0,2,2,0,0,0,2,1,0,2,0,0,0,0,2,0,2,0,2,0,1,0,0,2,0,0,0,0,2,2,0,1 | 0,0,0,0,0,1,0,1,0,2,2,1,1,2,2,1,1,0,0,0,0,0,0,1,0,1,0,0,0,0,2,0,0,0,2,0,0,0,0,0 | 1,1,0,0,0,2,1,1,0,0,1,0,0,2,0,1,0,2,1,0,0,0,1,0,1,2,1,2,0,0,2,2,0,0,0,0,0,2,1,0 | 2,2,0,1,0,0,1,0,1,2,1,0,0,1,2,0,1,1,2,1,2,0,0,2,2,0,1,0,0,2,0,0,2,1,0,0,0,2,0,1 | 2,2,0,2,0,0,0,1,0,0,1,2,0,1,0,0,3,0,5,2,0,0,0,0,5,0,3,0,0,0,1,5,3,3,0,0,4,2,0,0 | 0,0,0,0,0,0,0,0,0,5,0,0,0,0,3,5,0,0,0,0,3,0,4,0,0,0,3,0,0,5,0,0,0,0,0,0,1,4,0,0 | 0,2,4,0,4,0,0,0,2,0,0,0,0,0,3,0,0,0,0,0,0,1,0,0,4,2,3,0,0,0,0,0,0,0,0,0,5,0,0,3 | 0,0,4,0,5,2,0,0,0,0,1,0,0,0,0,0,0,0,0,1,0,5,1,0,0,2,0,2,4,0,5,0,4,0,0,0,0,0,0,0 | 0,0,1,0,0,1,0,0,0,0,0,0,0,0,0,0,1,0,5,2,0,5,0,0,0,5,0,3,0,3,0,0,0,0,0,0,0,0,0,0 | 0,0,0,0,0,0,4,4,3,0,2,0,0,0,0,0,0,0,0,0,0,0,0,0,0,0,4,2,3,0,2,0,0,3,0,0,0,5,1,0 | 1,0,2,0,2,0,0,0,5,0,0,0,4,0,0,0,4,0,0,0,0,2,0,0,5,0,5,0,0,0,0,0,4,0,2,0,4,1,3,0 | 0,0,0,0,0,0,0,2,0,0,0,2,4,3,0,0,2,0,3,0,0,0,0,2,3,0,3,0,0,4,4,0,0,0,0,0,0,4,0,0 | 0,0,0,4,5,0,0,0,4,3,0,3,5,0,5,0,0,0,0,0,0,0,5,4,0,5,0,0,0,0,0,0,0,4,4,5,3,0,0,0 | 0,0,0,1,0,0,0,5,0,5,0,2,0,0,5,0,0,1,3,0,0,0,0,2,0,0,0,0,0,0,0,0,0,0,0,0,0,0,0,1 | 1,0,0,0,0,0,1,0,5,3,0,0,0,0,1,4,0,0,0,3,0,0,4,0,0,5,0,4,0,0,0,0,0,0,0,0,1,0,0,0 | 0,0,0,0,0,0,0,0,4,0,0,5,0,0,2,5,0,0,0,0,0,0,1,4,0,3,4,0,0,0,0,0,0,4,1,0,0,0,0,0 | 0,0,1,0,0,0,1,0,5,0,5,0,4,0,0,4,0,0,1,0,0,0,0,2,0,0,3,0,3,0,0,0,0,0,0,0,0,0,4,1 | 1,1,2,0,0,5,0,0,2,0,0,3,1,0,0,0,0,0,3,0,0,0,5,0,0,0,0,0,0,2,0,0,2,0,0,0,0,0,1,0 | 0,0,2,4,0,0,0,3,4,0,0,0,3,3,0,2,0,0,4,3,0,3,0,0,0,4,0,0,5,3,1,0,0,5,0,4,0,0,0,0 | 4,0,0,0,0,0,1,0,0,3,5,0,0,2,0,0,0,0,0,0,0,0,2,0,0,0,0,0,0,0,0,3,0,1,2,0,0,1,5,5 | 0,0,0,0,0,0,0,0,0,3,1,0,5,0,0,0,0,0,0,5,1,1,0,4,0,0,0,0,0,1,0,0,0,3,0,0,2,1,0,5 | 2,0,0,0,0,0,0,0,0,0,0,0,5,0,0,0,2,5,0,0,0,0,0,3,0,0,2,0,0,0,2,0,3,3,0,0,0,5,0,0 | 4,0,1,0,0,3,1,3,0,0,1,0,5,0,0,5,0,0,0,1,0,0,0,4,2,2,0,0,0,0,5,0,0,0,3,2,4,0,0,0 | 5,0,0,0,0,0,0,2,0,2,0,0,3,0,0,3,0,5,0,0,0,0,0,0,0,0,0,0,4,0,0,3,0,4,4,0,0,0,0,0 | 0,0,0,1,4,0,0,2,2,0,0,1,0,0,0,3,0,5,0,0,0,1,0,0,0,0,0,0,0,0,0,2,0,0,2,3,0,0,0,3 | 5,0,0,3,2,0,3,0,0,5,0,3,0,2,4,1,0,0,0,3,0,0,1,4,0,0,3,0,0,0,0,0,0,2,3,0,0,0,5,0 | 0,0,0,4,0,0,0,1,0,0,0,0,0,0,0,1,1,4,1,0,0,2,0,0,0,3,0,0,1,0,4,1,0,4,0,0,0,2,0,0 | 0,5,5,0,5,0,0,2,0,0,0,0,2,0,0,0,0,0,0,0,0,5,2,0,3,0,3,4,0,0,0,0,0,4,0,0,0,0,0,0 | 3,0,0,2,0,0,3,0,0,2,0,3,0,0,0,0,0,0,0,0,0,0,0,0,0,0,0,0,0,0,0,3,0,0,2,0,0,0,2,0 | 3,0,0,0,0,4,0,0,0,1,4,0,0,0,0,0,4,2,1,4,3,0,2,0,0,0,0,4,0,3,0,0,4,0,0,0,0,0,0,0 | 0,0,3,0,2,0,0,0,0,2,0,0,0,1,0,5,0,3,2,2,0,2,0,0,0,0,0,0,0,0,0,4,4,0,0,0,0,4,0,0 | 0,0,0,0,0,0,0,0,0,4,3,2,1,0,0,5,0,0,0,0,0,2,0,0,0,3,5,4,0,0,0,2,1,0,0,0,1,0,2,0 | 0,2,1,0,0,0,0,4,3,0,0,0,5,2,0,0,1,0,3,0,0,0,0,0,3,0,5,0,3,4,0,0,0,0,1,0,0,0,0,0 | 3,4,5,0,0,4,4,0,2,0,2,0,4,3,1,1,0,5,0,2,0,4,0,0,0,0,0,0,2,0,4,0,0,0,4,0,0,0,0,0 | 0,1,0,5,0,1,0,0,0,0,0,4,0,0,4,0,4,0,0,0,2,0,4,0,5,0,5,0,0,0,3,3,0,5,0,5,0,0,0,0 | 1,3,0,0,2,0,4,4,0,0,0,4,0,0,3,5,5,0,0,4,0,0,0,3,0,0,0,0,0,0,0,2,0,0,4,0,0,0,5,0 | 0,0,0,0,4,0,0,0,0,1,0,3,0,1,0,0,2,0,3,1,4,0,4,0,0,0,2,1,0,1,5,2,4,4,0,0,0,5,0,0 | 0,1,1,0,0,0,0,0,0,0,0,5,0,2,0,0,0,0,0,3,0,0,0,5,0,1,0,4,0,0,0,5,5,0,0,0,0,0,0,0 | 2,1,0,0,0,0,0,5,0,1,1,0,4,3,0,0,0,0,0,5,0,0,0,0,0,4,0,1,0,4,0,1,4,0,0,5,0,0,0,0 | 4,4,0,0,0,0,2,0,5,0,0,0,0,0,0,0,0,3,0,0,0,0,0,0,4,0,0,0,0,0,0,0,0,0,0,0,0,0,2,0 | 0,0,2,0,3,0,4,0,0,2,0,0,5,0,0,0,0,0,1,0,0,5,1,0,0,2,1,0,2,4,2,3,2,0,0,0,0,0,0,4 | 1,0,0,0,0,0,0,0,3,0,0,2,0,3,0,0,0,0,0,0,0,1,0,4,2,0,3,0,0,4,5,0,0,0,0,0,0,2,0,0 | 0,0,0,4,0,3,4,0,0,0,5,0,2,0,0,0,0,0,5,0,0,0,0,3,0,0,0,0,0,0,0,0,0,0,2,0,1,0,0,0 | 0,3,0,0,0,0,0,5,0,2,0,0,1,1,0,0,3,0,1,0,0,0,0,0,0,1,0,0,3,0,0,0,4,0,1,0,0,0,0,0 | 1,0,0,0,0,2,0,2,0,0,4,0,0,0,0,3,0,0,0,0,0,0,2,0,0,2,5,0,0,0,0,0,0,5,0,0,0,0,2,0 | 0,0,1,0,0,0,0,0,3,0,0,3,0,0,0,0,0,0,0,0,3,3,0,2,0,0,0,0,0,0,2,0,0,0,0,2,0,0,0,0 | 1,0,0,4,1,0,0,0,1,0,3,0,4,0,0,3,0,3,0,0,5,5,5,3,0,4,0,0,0,0,0,5,0,0,0,0,0,0,0,4 | 5,0,0,0,0,0,0,0,0,0,5,0,0,4,2,2,0,2,0,0,0,3,0,0,5,0,5,5,0,0,3,0,0,0,0,0,1,0,0,0 | 0,0,0,0,0,0,1,0,1,0,0,0,0,0,0,0,0,0,0,0,1,1,5,0,1,0,0,0,0,0,0,0,0,0,0,3,5,0,0,1 | 0,0,0,0,3,0,3,0,0,0,0,0,0,0,0,4,0,0,0,0,0,2,0,0,3,0,0,0,0,0,0,5,1,0,0,0,0,5,2,0 | 0,0,3,0,0,0,0,0,0,0,2,0,3,0,0,3,0,3,0,0,0,0,0,3,0,0,0,0,0,0,0,0,0,0,2,0,2,0,0,0 | 0,0,3,0,2,0,4,3,2,0,0,0,5,1,0,0,0,0,0,4,5,0,0,3,0,0,3,0,0,0,2,5,0,0,0,0,0,0,0,0 | 4,0,0,0,0,0,2,0,2,0,0,2,0,0,1,2,0,0,0,0,0,0,0,0,0,4,0,0,0,0,5,4,0,0,3,4,0,5,5,0 | 0,0,0,3,0,0,0,0,0,0,0,0,0,3,3,1,0,0,5,0,0,1,0,0,0,0,0,0,0,4,2,4,2,4,4,0,0,1,2,0 | 0,0,0,0,0,2,2,4,0,0,1,0,0,0,0,0,0,0,5,0,0,0,0,0,0,0,0,0,0,0,0,0,0,0,0,0,0,0,0,3 | 0,0,0,0,0,0,0,0,2,4,0,0,0,0,5,0,5,1,0,0,0,0,2,3,5,0,0,1,0,0,3,5,0,1,0,0,0,0,0,0 | 0,1,2,5,0,0,0,0,0,5,0,0,5,5,0,2,0,4,0,0,2,0,0,0,5,0,0,0,1,0,0,5,0,0,0,0,1,0,1,0 | 0,0,0,4,0,0,4,4,0,0,0,1,0,0,0,0,1,0,0,5,0,0,0,0,0,0,0,3,1,0,0,3,0,3,0,3,0,0,1,0 | 3,0,5,2,0,2,0,0,0,0,0,0,0,0,4,0,0,0,0,0,5,4,0,0,0,4,0,2,4,0,0,0,0,0,0,0,0,4,2,0 | 3,0,0,0,0,0,1,5,0,0,0,5,0,0,0,2,2,0,0,3,0,5,1,5,0,1,0,0,0,0,0,2,0,1,0,0,0,0,0,0 | 0,0,4,0,0,0,0,3,0,0,0,0,1,0,0,3,3,0,3,2,0,0,1,0,0,0,0,0,0,0,0,0,5,0,1,0,4,0,0,0 | 0,0,0,0,0,5,4,0,0,0,3,1,4,5,4,0,0,5,0,0,0,0,0,4,0,5,0,0,2,0,0,5,0,0,0,0,0,2,0,0 | 0,3,0,0,0,0,3,4,0,4,0,2,0,0,0,0,2,0,0,1,0,0,0,4,0,5,0,0,0,0,0,0,0,0,0,0,4,0,0,0 | 0,0,5,0,0,0,4,1,1,0,0,0,0,5,0,4,0,0,0,5,0,4,4,0,3,0,0,0,0,0,0,1,0,2,0,0,0,1,0,5 | 0,4,2,0,0,0,0,0,0,0,0,4,0,0,0,3,0,0,0,0,1,0,0,5,1,0,0,0,0,0,0,1,0,5,0,0,2,3,0,0 | 0,0,3,0,0,2,0,0,0,0,0,0,0,2,3,2,0,2,0,0,0,0,0,0,0,0,0,0,0,0,0,2,0,5,4,0,2,4,0,0 | 4,0,4,0,0,0,0,0,0,0,0,0,0,0,0,0,0,0,0,0,0,0,0,0,5,0,0,3,0,0,0,5,0,2,0,0,4,0,0,0 | 0,0,5,0,0,0,0,0,1,0,0,0,0,0,1,0,5,0,0,0,4,2,0,0,0,0,0,0,0,0,0,0,0,0,0,0,0,0,0,0 |];
